
Gurobi 7.0.2 (linux64, Matlab) logging started Sun Sep  2 08:55:39 2018


Gurobi 7.0.2 (linux64) logging started Sun Sep  2 08:55:39 2018

Optimize a model with 3795 rows, 39075 columns and 806835 nonzeros
Coefficient statistics:
  Matrix range     [6e-07, 3e+04]
  Objective range  [1e+01, 3e+04]
  Bounds range     [1e+00, 3e+04]
  RHS range        [1e+00, 3e+04]
Iteration    Objective       Primal Inf.    Dual Inf.      Time
       0    5.0715937e+06   0.000000e+00   0.000000e+00      0s

Solved in 0 iterations and 0.04 seconds
Optimal objective  5.071593662e+06
